\* FishEggAllocation *\
Minimize
OBJ: 1000 dummy_penalty_0 + 1000 dummy_penalty_1 + 1000 dummy_penalty_2
 + 1000 dummy_penalty_3 + 1000 dummy_penalty_4 + 1000 dummy_penalty_5
 + 1000 dummy_penalty_6 + 1000 dummy_penalty_7 + 10 pref_penalty_0
 + 10 pref_penalty_1 + 10 pref_penalty_2 + 10 pref_penalty_4
 + 10 pref_penalty_5 + 0.06 y_0_0 + 0.86 y_0_1 + 0.13 y_0_2 + 0.06 y_1_0
 + 0.86 y_1_1 + 0.13 y_1_2 + 0.06 y_2_0 + 0.86 y_2_1 + 0.13 y_2_2 + 0.06 y_3_0
 + 0.86 y_3_1 + 0.13 y_3_2 + 0.06 y_4_0 + 0.86 y_4_1 + 0.13 y_4_2 + 0.06 y_5_0
 + 0.86 y_5_1 + 0.13 y_5_2 + 0.06 y_6_0 + 0.86 y_6_1 + 0.13 y_6_2 + 0.06 y_7_0
 + 0.86 y_7_1 + 0.13 y_7_2
Subject To
_C1: y_0_0 + y_0_1 + y_0_2 + y_0_3 + y_0_4 = 1
_C10: g_0_1 + s_0_1 - 500000 y_0_1 = 0
_C100: y_2_0 = 0
_C101: y_2_2 = 0
_C102: y_2_3 = 0
_C103: y_3_1 = 0
_C104: y_4_0 = 0
_C105: y_4_1 = 0
_C106: y_4_3 = 0
_C107: y_5_0 = 0
_C108: y_5_2 = 0
_C109: y_5_3 = 0
_C11: g_0_2 + s_0_2 - 500000 y_0_2 = 0
_C110: y_6_1 = 0
_C111: y_7_0 = 0
_C112: y_7_1 = 0
_C113: y_7_3 = 0
_C12: g_0_3 + s_0_3 - 500000 y_0_3 = 0
_C13: g_0_4 + s_0_4 - 500000 y_0_4 = 0
_C14: g_1_0 + s_1_0 - 300000 y_1_0 = 0
_C15: g_1_1 + s_1_1 - 300000 y_1_1 = 0
_C16: g_1_2 + s_1_2 - 300000 y_1_2 = 0
_C17: g_1_3 + s_1_3 - 300000 y_1_3 = 0
_C18: g_1_4 + s_1_4 - 300000 y_1_4 = 0
_C19: g_2_0 + s_2_0 - 400000 y_2_0 = 0
_C2: y_1_0 + y_1_1 + y_1_2 + y_1_3 + y_1_4 = 1
_C20: g_2_1 + s_2_1 - 400000 y_2_1 = 0
_C21: g_2_2 + s_2_2 - 400000 y_2_2 = 0
_C22: g_2_3 + s_2_3 - 400000 y_2_3 = 0
_C23: g_2_4 + s_2_4 - 400000 y_2_4 = 0
_C24: g_3_0 + s_3_0 - 600000 y_3_0 = 0
_C25: g_3_1 + s_3_1 - 600000 y_3_1 = 0
_C26: g_3_2 + s_3_2 - 600000 y_3_2 = 0
_C27: g_3_3 + s_3_3 - 600000 y_3_3 = 0
_C28: g_3_4 + s_3_4 - 600000 y_3_4 = 0
_C29: g_4_0 + s_4_0 - 250000 y_4_0 = 0
_C3: y_2_0 + y_2_1 + y_2_2 + y_2_3 + y_2_4 = 1
_C30: g_4_1 + s_4_1 - 250000 y_4_1 = 0
_C31: g_4_2 + s_4_2 - 250000 y_4_2 = 0
_C32: g_4_3 + s_4_3 - 250000 y_4_3 = 0
_C33: g_4_4 + s_4_4 - 250000 y_4_4 = 0
_C34: g_5_0 + s_5_0 - 350000 y_5_0 = 0
_C35: g_5_1 + s_5_1 - 350000 y_5_1 = 0
_C36: g_5_2 + s_5_2 - 350000 y_5_2 = 0
_C37: g_5_3 + s_5_3 - 350000 y_5_3 = 0
_C38: g_5_4 + s_5_4 - 350000 y_5_4 = 0
_C39: g_6_0 + s_6_0 - 1000000 y_6_0 = 0
_C4: y_3_0 + y_3_1 + y_3_2 + y_3_3 + y_3_4 = 1
_C40: g_6_1 + s_6_1 - 1000000 y_6_1 = 0
_C41: g_6_2 + s_6_2 - 1000000 y_6_2 = 0
_C42: g_6_3 + s_6_3 - 1000000 y_6_3 = 0
_C43: g_6_4 + s_6_4 - 1000000 y_6_4 = 0
_C44: g_7_0 + s_7_0 - 1500000 y_7_0 = 0
_C45: g_7_1 + s_7_1 - 1500000 y_7_1 = 0
_C46: g_7_2 + s_7_2 - 1500000 y_7_2 = 0
_C47: g_7_3 + s_7_3 - 1500000 y_7_3 = 0
_C48: g_7_4 + s_7_4 - 1500000 y_7_4 = 0
_C49: g_0_0 + g_1_0 + g_2_0 + g_3_0 + g_4_0 + g_5_0 + g_6_0 + g_7_0 <= 7996198
_C5: y_4_0 + y_4_1 + y_4_2 + y_4_3 + y_4_4 = 1
_C50: g_0_1 + g_1_1 + g_2_1 + g_3_1 + g_4_1 + g_5_1 + g_6_1 + g_7_1
 <= 16451359
_C51: g_0_2 + g_1_2 + g_2_2 + g_3_2 + g_4_2 + g_5_2 + g_6_2 + g_7_2 <= 1200000
_C52: g_0_3 + g_1_3 + g_2_3 + g_3_3 + g_4_3 + g_5_3 + g_6_3 + g_7_3 <= 1500000
_C53: s_0_0 + s_1_0 + s_2_0 + s_3_0 + s_4_0 + s_5_0 + s_6_0 + s_7_0 <= 7996198
_C54: s_0_1 + s_1_1 + s_2_1 + s_3_1 + s_4_1 + s_5_1 + s_6_1 + s_7_1
 <= 16451359
_C55: s_0_2 + s_1_2 + s_2_2 + s_3_2 + s_4_2 + s_5_2 + s_6_2 + s_7_2 <= 200000
_C56: s_0_3 + s_1_3 + s_2_3 + s_3_3 + s_4_3 + s_5_3 + s_6_3 + s_7_3 <= 0
_C57: s_0_0 = 0
_C58: s_0_1 = 0
_C59: s_0_2 = 0
_C6: y_5_0 + y_5_1 + y_5_2 + y_5_3 + y_5_4 = 1
_C60: s_0_3 = 0
_C61: s_0_4 = 0
_C62: s_1_0 = 0
_C63: s_1_1 = 0
_C64: s_1_2 = 0
_C65: s_1_3 = 0
_C66: s_1_4 = 0
_C67: s_3_0 = 0
_C68: s_3_1 = 0
_C69: s_3_2 = 0
_C7: y_6_0 + y_6_1 + y_6_2 + y_6_3 + y_6_4 = 1
_C70: s_3_3 = 0
_C71: s_3_4 = 0
_C72: s_5_0 = 0
_C73: s_5_1 = 0
_C74: s_5_2 = 0
_C75: s_5_3 = 0
_C76: s_5_4 = 0
_C77: y_1_1 = 0
_C78: y_1_3 = 0
_C79: y_5_1 = 0
_C8: y_7_0 + y_7_1 + y_7_2 + y_7_3 + y_7_4 = 1
_C80: y_5_3 = 0
_C81: y_3_0 = 0
_C82: y_3_1 = 0
_C83: y_3_2 = 0
_C84: dummy_penalty_0 - y_0_4 >= 0
_C85: dummy_penalty_1 - y_1_4 >= 0
_C86: dummy_penalty_2 - y_2_4 >= 0
_C87: dummy_penalty_3 - y_3_4 >= 0
_C88: dummy_penalty_4 - y_4_4 >= 0
_C89: dummy_penalty_5 - y_5_4 >= 0
_C9: g_0_0 + s_0_0 - 500000 y_0_0 = 0
_C90: dummy_penalty_6 - y_6_4 >= 0
_C91: dummy_penalty_7 - y_7_4 >= 0
_C92: pref_penalty_0 - y_0_1 - y_0_2 - y_0_3 >= 0
_C93: pref_penalty_1 - y_1_0 - y_1_1 - y_1_3 >= 0
_C94: pref_penalty_2 - y_2_0 - y_2_2 - y_2_3 >= 0
_C95: pref_penalty_4 - y_4_1 - y_4_2 - y_4_3 >= 0
_C96: pref_penalty_5 - y_5_0 - y_5_2 - y_5_3 >= 0
_C97: y_0_1 = 0
_C98: y_1_1 = 0
_C99: y_1_3 = 0
Binaries
y_0_0
y_0_1
y_0_2
y_0_3
y_0_4
y_1_0
y_1_1
y_1_2
y_1_3
y_1_4
y_2_0
y_2_1
y_2_2
y_2_3
y_2_4
y_3_0
y_3_1
y_3_2
y_3_3
y_3_4
y_4_0
y_4_1
y_4_2
y_4_3
y_4_4
y_5_0
y_5_1
y_5_2
y_5_3
y_5_4
y_6_0
y_6_1
y_6_2
y_6_3
y_6_4
y_7_0
y_7_1
y_7_2
y_7_3
y_7_4
End
